p cnf 21 70
1 2 3 0
4 5 6 0
7 8 9 0
10 11 12 0
13 14 15 0
16 17 18 0
19 20 21 0
-1 -4 0
-1 -7 0
-1 -10 0
-1 -13 0
-1 -16 0
-1 -19 0
-4 -7 0
-4 -10 0
-4 -13 0
-4 -16 0
-4 -19 0
-7 -10 0
-7 -13 0
-7 -16 0
-7 -19 0
-10 -13 0
-10 -16 0
-10 -19 0
-13 -16 0
-13 -19 0
-16 -19 0
-2 -5 0
-2 -8 0
-2 -11 0
-2 -14 0
-2 -17 0
-2 -20 0
-5 -8 0
-5 -11 0
-5 -14 0
-5 -17 0
-5 -20 0
-8 -11 0
-8 -14 0
-8 -17 0
-8 -20 0
-11 -14 0
-11 -17 0
-11 -20 0
-14 -17 0
-14 -20 0
-17 -20 0
-3 -6 0
-3 -9 0
-3 -12 0
-3 -15 0
-3 -18 0
-3 -21 0
-6 -9 0
-6 -12 0
-6 -15 0
-6 -18 0
-6 -21 0
-9 -12 0
-9 -15 0
-9 -18 0
-9 -21 0
-12 -15 0
-12 -18 0
-12 -21 0
-15 -18 0
-15 -21 0
-18 -21 0
